c cksystemsgroup.github.io/unicorn
c CNF contains a total of 380 clauses.
c CNF contains a total of 218 variables.
c CNF clauses cover 1 bad states.
c Variable name mapping (57 names):
c   1: input[bit=0]
c   4: input[bit=1]
c   7: input[bit=2]
c   10: input[bit=3]
c   14: input[bit=4]
c   17: input[bit=5]
c   20: input[bit=6]
c   23: input[bit=7]
c   27: input[bit=8]
c   31: input[bit=9]
c   35: input[bit=10]
c   39: input[bit=11]
c   43: input[bit=12]
c   47: input[bit=13]
c   51: input[bit=14]
c   55: input[bit=15]
c   59: input[bit=16]
c   63: input[bit=17]
c   67: input[bit=18]
c   71: input[bit=19]
c   75: input[bit=20]
c   79: input[bit=21]
c   83: input[bit=22]
c   87: input[bit=23]
c   91: input[bit=24]
c   95: input[bit=25]
c   99: input[bit=26]
c   103: input[bit=27]
c   107: input[bit=28]
c   111: input[bit=29]
c   115: input[bit=30]
c   119: input[bit=31]
c   123: input[bit=32]
c   127: input[bit=33]
c   131: input[bit=34]
c   135: input[bit=35]
c   139: input[bit=36]
c   143: input[bit=37]
c   147: input[bit=38]
c   151: input[bit=39]
c   155: input[bit=40]
c   159: input[bit=41]
c   163: input[bit=42]
c   167: input[bit=43]
c   171: input[bit=44]
c   175: input[bit=45]
c   179: input[bit=46]
c   183: input[bit=47]
c   187: input[bit=48]
c   191: input[bit=49]
c   195: input[bit=50]
c   199: input[bit=51]
c   203: input[bit=52]
c   207: input[bit=53]
c   211: input[bit=54]
c   215: input[bit=55]
c   218: ?
p cnf 218 380
-1 -2 0
1 2 0
-2 -3 0
2 3 0
-4 -5 0
4 5 0
-3 -5 6 0
3 -6 0
5 -6 0
-7 -8 0
7 8 0
-6 -8 9 0
6 -9 0
8 -9 0
-10 -11 0
10 11 0
-11 -12 0
11 12 0
-9 -12 13 0
9 -13 0
12 -13 0
-14 -15 0
14 15 0
-13 -15 16 0
13 -16 0
15 -16 0
-17 -18 0
17 18 0
-16 -18 19 0
16 -19 0
18 -19 0
-20 -21 0
20 21 0
-19 -21 22 0
19 -22 0
21 -22 0
-23 -24 0
23 24 0
-24 -25 0
24 25 0
-22 -25 26 0
22 -26 0
25 -26 0
-27 -28 0
27 28 0
-28 -29 0
28 29 0
-26 -29 30 0
26 -30 0
29 -30 0
-31 -32 0
31 32 0
-32 -33 0
32 33 0
-30 -33 34 0
30 -34 0
33 -34 0
-35 -36 0
35 36 0
-36 -37 0
36 37 0
-34 -37 38 0
34 -38 0
37 -38 0
-39 -40 0
39 40 0
-40 -41 0
40 41 0
-38 -41 42 0
38 -42 0
41 -42 0
-43 -44 0
43 44 0
-44 -45 0
44 45 0
-42 -45 46 0
42 -46 0
45 -46 0
-47 -48 0
47 48 0
-48 -49 0
48 49 0
-46 -49 50 0
46 -50 0
49 -50 0
-51 -52 0
51 52 0
-52 -53 0
52 53 0
-50 -53 54 0
50 -54 0
53 -54 0
-55 -56 0
55 56 0
-56 -57 0
56 57 0
-54 -57 58 0
54 -58 0
57 -58 0
-59 -60 0
59 60 0
-60 -61 0
60 61 0
-58 -61 62 0
58 -62 0
61 -62 0
-63 -64 0
63 64 0
-64 -65 0
64 65 0
-62 -65 66 0
62 -66 0
65 -66 0
-67 -68 0
67 68 0
-68 -69 0
68 69 0
-66 -69 70 0
66 -70 0
69 -70 0
-71 -72 0
71 72 0
-72 -73 0
72 73 0
-70 -73 74 0
70 -74 0
73 -74 0
-75 -76 0
75 76 0
-76 -77 0
76 77 0
-74 -77 78 0
74 -78 0
77 -78 0
-79 -80 0
79 80 0
-80 -81 0
80 81 0
-78 -81 82 0
78 -82 0
81 -82 0
-83 -84 0
83 84 0
-84 -85 0
84 85 0
-82 -85 86 0
82 -86 0
85 -86 0
-87 -88 0
87 88 0
-88 -89 0
88 89 0
-86 -89 90 0
86 -90 0
89 -90 0
-91 -92 0
91 92 0
-92 -93 0
92 93 0
-90 -93 94 0
90 -94 0
93 -94 0
-95 -96 0
95 96 0
-96 -97 0
96 97 0
-94 -97 98 0
94 -98 0
97 -98 0
-99 -100 0
99 100 0
-100 -101 0
100 101 0
-98 -101 102 0
98 -102 0
101 -102 0
-103 -104 0
103 104 0
-104 -105 0
104 105 0
-102 -105 106 0
102 -106 0
105 -106 0
-107 -108 0
107 108 0
-108 -109 0
108 109 0
-106 -109 110 0
106 -110 0
109 -110 0
-111 -112 0
111 112 0
-112 -113 0
112 113 0
-110 -113 114 0
110 -114 0
113 -114 0
-115 -116 0
115 116 0
-116 -117 0
116 117 0
-114 -117 118 0
114 -118 0
117 -118 0
-119 -120 0
119 120 0
-120 -121 0
120 121 0
-118 -121 122 0
118 -122 0
121 -122 0
-123 -124 0
123 124 0
-124 -125 0
124 125 0
-122 -125 126 0
122 -126 0
125 -126 0
-127 -128 0
127 128 0
-128 -129 0
128 129 0
-126 -129 130 0
126 -130 0
129 -130 0
-131 -132 0
131 132 0
-132 -133 0
132 133 0
-130 -133 134 0
130 -134 0
133 -134 0
-135 -136 0
135 136 0
-136 -137 0
136 137 0
-134 -137 138 0
134 -138 0
137 -138 0
-139 -140 0
139 140 0
-140 -141 0
140 141 0
-138 -141 142 0
138 -142 0
141 -142 0
-143 -144 0
143 144 0
-144 -145 0
144 145 0
-142 -145 146 0
142 -146 0
145 -146 0
-147 -148 0
147 148 0
-148 -149 0
148 149 0
-146 -149 150 0
146 -150 0
149 -150 0
-151 -152 0
151 152 0
-152 -153 0
152 153 0
-150 -153 154 0
150 -154 0
153 -154 0
-155 -156 0
155 156 0
-156 -157 0
156 157 0
-154 -157 158 0
154 -158 0
157 -158 0
-159 -160 0
159 160 0
-160 -161 0
160 161 0
-158 -161 162 0
158 -162 0
161 -162 0
-163 -164 0
163 164 0
-164 -165 0
164 165 0
-162 -165 166 0
162 -166 0
165 -166 0
-167 -168 0
167 168 0
-168 -169 0
168 169 0
-166 -169 170 0
166 -170 0
169 -170 0
-171 -172 0
171 172 0
-172 -173 0
172 173 0
-170 -173 174 0
170 -174 0
173 -174 0
-175 -176 0
175 176 0
-176 -177 0
176 177 0
-174 -177 178 0
174 -178 0
177 -178 0
-179 -180 0
179 180 0
-180 -181 0
180 181 0
-178 -181 182 0
178 -182 0
181 -182 0
-183 -184 0
183 184 0
-184 -185 0
184 185 0
-182 -185 186 0
182 -186 0
185 -186 0
-187 -188 0
187 188 0
-188 -189 0
188 189 0
-186 -189 190 0
186 -190 0
189 -190 0
-191 -192 0
191 192 0
-192 -193 0
192 193 0
-190 -193 194 0
190 -194 0
193 -194 0
-195 -196 0
195 196 0
-196 -197 0
196 197 0
-194 -197 198 0
194 -198 0
197 -198 0
-199 -200 0
199 200 0
-200 -201 0
200 201 0
-198 -201 202 0
198 -202 0
201 -202 0
-203 -204 0
203 204 0
-204 -205 0
204 205 0
-202 -205 206 0
202 -206 0
205 -206 0
-207 -208 0
207 208 0
-208 -209 0
208 209 0
-206 -209 210 0
206 -210 0
209 -210 0
-211 -212 0
211 212 0
-212 -213 0
212 213 0
-210 -213 214 0
210 -214 0
213 -214 0
-215 -216 0
215 216 0
-216 -217 0
216 217 0
-214 -217 218 0
214 -218 0
217 -218 0
218 0
